39
10 37 23 37 30 32 26 30 38 32 20 9 26 35 11 17 29 38 8 0 36 0 1 20 31 18 0 26 14 33 15 12 38 24 8 23 11 9 30 7 32 14 35 5 25 2 1 13 22 34 4 12 37 28 27 15 3 27 22 28 34 16 3 24 36 25 10 15 16 23 18 7 4 6 34 24 4 17 10 19 3 19 21 14 13 13 21 16 8 2 33 31 5 7 6 9 11 29 6 36